p ds 32 48
1 2
1 27
2 30
2 7
3 24
3 25
4 5
4 19
5 8
6 31
6 15
6 16
7 29
7 17
7 32
8 9
8 17
8 19
9 10
10 17
11 12
11 13
11 24
12 14
12 26
13 23
13 28
14 29
14 18
15 20
15 21
15 16
16 31
16 32
17 27
18 29
18 19
20 21
21 22
22 29
22 26
23 28
23 24
24 25
26 29
29 32
30 31
30 32
